outputs/case_319.model.txt
liability_insurance_subscribed = True
broker_company_apply_resume = False
broker_fulfill_fidelity_obligation = False
insurance_broker = True
agent_or_notary = False
broker_company_dissolve = False
guarantee_deposit_amount = 500000
broker_company_employ_broker_as_required = False
minimum_guarantee_deposit = 500000
broker_company_license_revoked = False
broker_company_stop_reinsurance_brokerage = False
written_analysis_report_provided = False
broker_company_suspend = True
payer_is_insured_or_beneficiary = False
direct_total_payment_to_insurer = True
fee_standard_disclosed = False
authority_defined_minimum_guarantee_deposit = True
guarantee_insurance_subscribed = True
broker_company_suspend_period_expired = False
broker_company_apply_extension = False
report_to_authority_within_1_month = False
broker_company_stop_insurance_brokerage = False
broker_within_authority_scope = True
broker_company_operate_both_insurance_and_reinsurance = False
collect_and_pay_insurance_fee = True
broker_company_apply_suspend = True
extension_application_submitted = False
payer_statement_provided = True
broker_company_extension_count = 0
broker_company_suspend_period_expiring_soon = False
broker_charge_fee = False
broker_exercise_duty_of_care = False
broker_company_suspend_duration_months = 0
broker_company_apply_dissolve = True
fail_to_fill_solicitation_report_truthfully = False
broker_disclose_fee_standard = True
bank_approved_by_authority = False
bank_operate_as_agent = False
bank_operate_as_broker = False
bank_permission_and_separate_application = False
relevant_insurance_subscribed = True
broker_and_company_license_cancelled = True
broker_company_revoke_if_no_resume_and_no_broker = False
coerce_or_induce_or_limit_contract_freedom = False
broker_company_cancel_broker_license_on_suspend_or_dissolve = True
violation_financial_or_business_management_rules = False
criminal_conviction_for_fraud_or_breach_of_trust = False
approved_by_authority = True
violate_business_management_rules = False
annual_financial_reports_submitted = True
unauthorized_suspend_resume_dissolve_or_terminate_business = False
use_unapproved_advertisement_content = False
violate_163_7th_paragraph = False
pay_commission_to_non_actual_solicitor = False
transfer_application_documents_without_consent = False
permit_others_to_use_license = False
broker_company_suspend_period_limit = 1
authority_defined_management_rules = True
spread_false_information_disturb_financial_order = False
broker_fee_collection_and_payment_compliance = True
violate_165_1st_paragraph = False
improvement_follow_up_reported = True
special_account_books_maintained = True
violate_financial_management_rules = False
other_violations_of_rules_or_laws = False
induce_clients_to_cancel_or_terminate_contracts = False
broker_company_report_to_authority_on_stop_business = True
other_behaviors_damaging_insurance_image = False
authorize_others_to_operate_or_use_others_name = False
broker_duty_of_care_and_fidelity = False
misappropriate_insurance_or_reinsurance_funds = False
report_and_registration_done = True
broker_license_cancelled_within_30_days = True
broker_bookkeeping_and_reporting_compliance = True
broker_provide_written_analysis_report = False
hold_positions_in_insurance_or_association_conflict = False
fail_to_employ_broker_after_broker_resignation = False
sell_unapproved_foreign_policy_discount_products = False
relevant_insurance_type_compliance = True
violate_163_5th_paragraph_applied = False
license_and_guarantee_compliance = True
fail_to_cancel_license_within_legal_period = False
broker_cancel_registration_if_company_suspend_dissolve_or_license_revoked = True
employ_unqualified_insurance_solicitors = False
false_declaration_on_license_application = False
fail_to_confirm_consumer_suitability = False
authority_or_designated_agency_inspection = True
charge_unlawful_fees_or_commissions = False
violation_penalty = False
unlawful_insurance_claims = False
prohibited_behaviors = True
management_rules_defined = True
misleading_promotion_or_recruitment = False
improper_inducement_to_cancel_or_transfer = False
fail_to_report_to_broker_association = False
penalty = False
license_issued = True
conceal_important_contract_info = False
operate_outside_license_scope = False
contract_with_unapproved_insurer = False
broker_company_report_and_registration_compliance = True
submit_false_or_incomplete_business_or_financial_reports = False
minimum_guarantee_deposit_defined = True